sat
(= |goto_symex::&92;guard#4| false)
(= |goto_symex::&92;guard#5| false)
(= |goto_symex::&92;guard#6| false)
(= |goto_symex::&92;guard#7| false)
(= |goto_symex::&92;guard#8| true)
(= |goto_symex::&92;guard#9| false)
(= |goto_symex::&92;guard#10| true)
(= |memory_model::choice_rf_0_29_0_8_T_0| false)
(= |memory_model::choice_rf_0_29_1_7_T_1| false)
(= |memory_model::choice_rf_0_29_2_7_T_2| true)
(= |memory_model::choice_rf_0_29_3_6_T_3| false)
(= |memory_model::choice_rf_0_33_0_8_T_4| false)
(= |memory_model::choice_rf_0_33_1_7_T_5| false)
(= |memory_model::choice_rf_0_33_2_7_T_6| false)
(= |memory_model::choice_rf_0_33_3_6_T_7| false)
(= |memory_model::choice_rf_0_37_0_8_T_8| false)
(= |memory_model::choice_rf_0_37_1_7_T_9| false)
(= |memory_model::choice_rf_0_37_2_7_T_10| false)
(= |memory_model::choice_rf_0_37_3_6_T_11| false)
(= |memory_model::choice_rf_1_6_0_8_T_12| true)
(= |memory_model::choice_rf_1_6_2_7_T_13| false)
(= |memory_model::choice_rf_1_6_3_6_T_14| false)
(= |memory_model::choice_rf_2_6_0_8_T_15| false)
(= |memory_model::choice_rf_2_6_1_7_T_16| true)
(= |memory_model::choice_rf_2_6_3_6_T_17| false)
(= |memory_model::choice_rf_3_5_0_8_T_18| false)
(= |memory_model::choice_rf_3_5_1_7_T_19| false)
(= |memory_model::choice_rf_3_5_2_7_T_20| false)
(= |memory_model::choice_rf_0_18_0_6_T_21| false)
(= |memory_model::choice_rf_0_18_0_15_T_22| true)
(= |memory_model::choice_rf_0_22_0_6_T_23| false)
(= |memory_model::choice_rf_0_22_0_15_T_24| false)
(= |memory_model::choice_rf_0_22_0_19_T_25| true)
(= |memory_model::choice_rf_0_28_0_6_T_26| false)
(= |memory_model::choice_rf_0_28_0_15_T_27| false)
(= |memory_model::choice_rf_0_28_0_19_T_28| false)
(= |memory_model::choice_rf_0_28_0_23_T_29| true)
(= |memory_model::choice_rf_0_32_0_6_T_30| false)
(= |memory_model::choice_rf_0_32_0_15_T_31| false)
(= |memory_model::choice_rf_0_32_0_19_T_32| false)
(= |memory_model::choice_rf_0_32_0_23_T_33| true)
(= |memory_model::choice_rf_0_36_0_6_T_34| false)
(= |memory_model::choice_rf_0_36_0_15_T_35| false)
(= |memory_model::choice_rf_0_36_0_19_T_36| false)
(= |memory_model::choice_rf_0_36_0_23_T_37| true)
(= |memory_model::choice_rf_1_2_0_9_F_38| true)
(= |memory_model::choice_rf_1_2_2_3_F_39| false)
(= |memory_model::choice_rf_2_2_0_9_F_40| false)
(= |memory_model::choice_rf_2_2_1_3_F_41| true)
(= |memory_model::choice_rf_3_2_0_9_F_42| false)
(= |memory_model::choice_rf_3_2_1_3_F_43| false)
(= |memory_model::choice_rf_3_2_2_3_F_44| true)
(= |memory_model::choice_rf_1_0_0_10_F_45| false)
(= |memory_model::choice_rf_1_0_0_11_F_46| true)
(= |memory_model::choice_rf_1_0_2_1_F_47| false)
(= |memory_model::choice_rf_1_0_2_5_F_48| false)
(= |memory_model::choice_rf_1_0_3_1_F_49| false)
(= |memory_model::choice_rf_1_0_3_4_F_50| false)
(= |memory_model::choice_rf_1_4_0_10_F_51| false)
(= |memory_model::choice_rf_1_4_0_11_F_52| false)
(= |memory_model::choice_rf_1_4_1_1_F_53| true)
(= |memory_model::choice_rf_1_4_2_1_F_54| false)
(= |memory_model::choice_rf_1_4_2_5_F_55| false)
(= |memory_model::choice_rf_1_4_3_1_F_56| false)
(= |memory_model::choice_rf_1_4_3_4_F_57| false)
(= |memory_model::choice_rf_2_0_0_10_F_58| false)
(= |memory_model::choice_rf_2_0_0_11_F_59| false)
(= |memory_model::choice_rf_2_0_1_1_F_60| false)
(= |memory_model::choice_rf_2_0_1_5_F_61| true)
(= |memory_model::choice_rf_2_0_3_1_F_62| false)
(= |memory_model::choice_rf_2_0_3_4_F_63| false)
(= |memory_model::choice_rf_2_4_0_10_F_64| false)
(= |memory_model::choice_rf_2_4_0_11_F_65| false)
(= |memory_model::choice_rf_2_4_1_1_F_66| false)
(= |memory_model::choice_rf_2_4_1_5_F_67| false)
(= |memory_model::choice_rf_2_4_2_1_F_68| true)
(= |memory_model::choice_rf_2_4_3_1_F_69| false)
(= |memory_model::choice_rf_2_4_3_4_F_70| false)
(= |memory_model::choice_rf_3_0_0_10_F_71| false)
(= |memory_model::choice_rf_3_0_0_11_F_72| false)
(= |memory_model::choice_rf_3_0_1_1_F_73| false)
(= |memory_model::choice_rf_3_0_1_5_F_74| false)
(= |memory_model::choice_rf_3_0_2_1_F_75| false)
(= |memory_model::choice_rf_3_0_2_5_F_76| true)
(= |memory_model::choice_rf_3_3_0_10_F_77| false)
(= |memory_model::choice_rf_3_3_0_11_F_78| false)
(= |memory_model::choice_rf_3_3_1_1_F_79| false)
(= |memory_model::choice_rf_3_3_1_5_F_80| false)
(= |memory_model::choice_rf_3_3_2_1_F_81| false)
(= |memory_model::choice_rf_3_3_2_5_F_82| false)
(= |memory_model::choice_rf_3_3_3_1_F_83| false)
(= |memory_model::choice_rf_0_26_0_12_F_84| false)
(= |memory_model::choice_rf_0_26_0_16_F_85| true)
(= |memory_model::choice_rf_0_27_0_12_F_86| false)
(= |memory_model::choice_rf_0_27_0_16_F_87| true)
(= |memory_model::choice_rf_0_30_0_13_F_88| false)
(= |memory_model::choice_rf_0_30_0_20_F_89| true)
(= |memory_model::choice_rf_0_31_0_13_F_90| false)
(= |memory_model::choice_rf_0_31_0_20_F_91| true)
(= |memory_model::choice_rf_0_34_0_14_F_92| false)
(= |memory_model::choice_rf_0_34_0_24_F_93| true)
(= |memory_model::choice_rf_0_35_0_14_F_94| true)
(= |memory_model::choice_rf_0_35_0_24_F_95| false)
(= |memory_model::choice_ws-ext_0_8_1_7_T_96| true)
(= |memory_model::choice_ws-ext_0_8_2_7_T_97| true)
(= |memory_model::choice_ws-ext_0_8_3_6_T_98| true)
(= |memory_model::choice_ws-ext_1_7_2_7_T_99| true)
(= |memory_model::choice_ws-ext_1_7_3_6_T_100| true)
(= |memory_model::choice_ws-ext_2_7_3_6_T_101| true)
(= |memory_model::choice_ws-ext_0_9_1_3_F_102| true)
(= |memory_model::choice_ws-ext_0_9_2_3_F_103| true)
(= |memory_model::choice_ws-ext_1_3_2_3_F_104| true)
(= |memory_model::choice_ws-ext_0_10_1_1_F_105| true)
(= |memory_model::choice_ws-ext_0_10_1_5_F_106| true)
(= |memory_model::choice_ws-ext_0_10_2_1_F_107| true)
(= |memory_model::choice_ws-ext_0_10_2_5_F_108| true)
(= |memory_model::choice_ws-ext_0_10_3_1_F_109| true)
(= |memory_model::choice_ws-ext_0_10_3_4_F_110| true)
(= |memory_model::choice_ws-ext_0_11_1_1_F_111| true)
(= |memory_model::choice_ws-ext_0_11_1_5_F_112| true)
(= |memory_model::choice_ws-ext_0_11_2_1_F_113| true)
(= |memory_model::choice_ws-ext_0_11_2_5_F_114| true)
(= |memory_model::choice_ws-ext_0_11_3_1_F_115| true)
(= |memory_model::choice_ws-ext_0_11_3_4_F_116| true)
(= |memory_model::choice_ws-ext_1_1_2_1_F_117| true)
(= |memory_model::choice_ws-ext_1_1_2_5_F_118| true)
(= |memory_model::choice_ws-ext_1_1_3_1_F_119| true)
(= |memory_model::choice_ws-ext_1_1_3_4_F_120| true)
(= |memory_model::choice_ws-ext_1_5_2_1_F_121| true)
(= |memory_model::choice_ws-ext_1_5_2_5_F_122| true)
(= |memory_model::choice_ws-ext_1_5_3_1_F_123| true)
(= |memory_model::choice_ws-ext_1_5_3_4_F_124| true)
(= |memory_model::choice_ws-ext_2_1_3_1_F_125| true)
(= |memory_model::choice_ws-ext_2_1_3_4_F_126| true)
(= |memory_model::choice_ws-ext_2_5_3_1_F_127| true)
(= |memory_model::choice_ws-ext_2_5_3_4_F_128| true)
(= |pthread_join::thread!0@1#1| #b00000000000000000000000000000001)
(= |pthread_join::thread!0@2#1| #b00000000000000000000000000000010)
(= |pthread_join::thread!0@3#1| #b10000000000000000000000000000011)
(=
 |mutex#4|
 #b000000000000000000000000000000000000000000000000000000000000000000000000000000000000000000000000000000000000000000000000000000000000000000000000000000000000000000000000000000000000000000000000)
(=
 |mutex#12|
 #b000000000000000000000000000000000000000000000000000000000000000000000000000000000000000000000000000000000000000000000000000000000000000000000000000000000000000000000000000000000000000000000000)
(=
 |mutex#20|
 #b000000000000000000000000000000000000000000000000000000000000000000000000000000000000000000000000000000000000000000000000000000000000000000000000000000000000000000000000000000000000000000000000)
(= |__CPROVER_next_thread_id#3| #b00000000000000000000000000000001)
(= |__CPROVER_next_thread_id#6| #b00000000000000000000000000000010)
(= |main::1::t1!0@1#4| #b00000000000000000000000000000001)
(= |__CPROVER_next_thread_id#9| #b00000000000000000000000000000011)
(= |main::1::t2!0@1#4| #b00000000000000000000000000000010)
(= |__CPROVER_next_thread_id#10| #b00000000000000000000000000000011)
(= |main::1::t3!0@1#4| #b10000000000000000000000000000011)
(= |__CPROVER_next_thread_id#11| #b00000000000000000000000000000011)
(= |pthread_create::1::this_thread_id!1@0#0| #b00000000000000000000000000000000)
(=
 |mutex#3|
 #b000000000000000000000000000000000000000000000000000000000000000000000000000000000000000000000000000000000000000000000000000000000000000000000000000000000000000000000000000000000000000000000000)
(= |data#2| #b00000000000000000000000000000000)
(=
 |mutex#6|
 #b000000000000000000000000000000000000000000000000000000000000000000000000000000000000000000000000000000000000000000000000000000000000000000000000000000000000000000000000000000000000000000000001)
(=
 |mutex#9|
 #b000000000000000000000000000000000000000000000000000000000000000000000000000000000000000000000000000000000000000000000000000000000000000000000000000000000000000000000000000000000000000000000000)
(= |pthread_create::1::this_thread_id!2@0#0| #b10000000000000000000000000000000)
(=
 |mutex#11|
 #b000000000000000000000000000000000000000000000000000000000000000000000000000000000000000000000000000000000000000000000000000000000000000000000000000000000000000000000000000000000000000000000000)
(= |data#4| #b00000000000000000000000000000001)
(=
 |mutex#14|
 #b000000000000000000000000000000000000000000000000000000000000000000000000000000000000000000000000000000000000000000000000000000000000000000000000000000000000000000000000000000000000000000000001)
(=
 |mutex#17|
 #b000000000000000000000000000000000000000000000000000000000000000000000000000000000000000000000000000000000000000000000000000000000000000000000000000000000000000000000000000000000000000000000000)
(= |pthread_create::1::this_thread_id!3@0#0| #b00000000000000000000000000000000)
(=
 |mutex#19|
 #b000000000000000000000000000000000000000000000000000000000000000000000000000000000000000000000000000000000000000000000000000000000000000000000000000000000000000000000000000000000000000000000000)
(= |data#6| #b00000000000000000000000000000011)
(=
 |mutex#22|
 #b000000000000000000000000000000000000000000000000000000000000000000000000000000000000000000000000000000000000000000000000000000000000000000000000000000000000000000000000000000000000000010000001)
(= |main::1::t1!0@1#1| #b10000000000000000000000000000001)
(= |main::1::t2!0@1#1| #b10000000000000000000000000000010)
(= |main::1::t3!0@1#1| #b10000000000000000000000000000011)
(= |__CPROVER_threads_exited#6$wclk$8| #b101101)
(= |__CPROVER_threads_exited#2$rclk$8| #b110001)
(= |__CPROVER_threads_exited#8$wclk$8| #b101111)
(= |__CPROVER_threads_exited#10$wclk$8| #b111010)
(= |__CPROVER_threads_exited#3$rclk$8| #b111000)
(= |__CPROVER_threads_exited#4$rclk$8| #b111101)
(= |__CPROVER_threads_exited#1$wclk$8| #b001001)
(= |__CPROVER_threads_exited#5$rclk$8| #b100111)
(= |__CPROVER_threads_exited#7$rclk$8| #b101110)
(= |__CPROVER_threads_exited#9$rclk$8| #b111001)
(= |data#1$wclk$8| #b001010)
(= |data#2$rclk$8| #b100001)
(= |data#5$wclk$8| #b101001)
(= |data#4$rclk$8| #b101000)
(= |data#3$wclk$8| #b100010)
(= |data#6$rclk$8| #b101111)
(= |mutex#1$wclk$8| #b001011)
(= |mutex#3$rclk$8| #b100000)
(= |mutex#2$wclk$8| #b001100)
(= |mutex#13$wclk$8| #b100111)
(= |mutex#18$wclk$8| #b101011)
(= |mutex#21$wclk$8| #b101110)
(= |mutex#24$wclk$8| #b110111)
(= |mutex#6$rclk$8| #b100011)
(= |mutex#11$rclk$8| #b100111)
(= |mutex#5$wclk$8| #b100000)
(= |mutex#10$wclk$8| #b100011)
(= |mutex#14$rclk$8| #b101011)
(= |mutex#19$rclk$8| #b101110)
(= |mutex#22$rclk$8| #b110111)
(= |main::1::t1!0@1#3| #b00000000000000000000000000000001)
(= |main::1::t2!0@1#3| #b00000000000000000000000000000010)
(= |main::1::t3!0@1#3| #b00000000000000000000000000000011)
(= t1$17$spwnclk$8 #b010011)
(= t1$21$spwnclk$8 #b011010)
(= t1$25$spwnclk$8 #b101101)
(= |__CPROVER_dead_object#1$wclk$8| #b000000)
(= |__CPROVER_deallocated#1$wclk$8| #b000001)
(= |__CPROVER_malloc_is_new_array#1$wclk$8| #b000010)
(= |__CPROVER_malloc_object#1$wclk$8| #b000011)
(= |__CPROVER_malloc_size#1$wclk$8| #b000100)
(= |__CPROVER_memory_leak#1$wclk$8| #b000110)
(= |__CPROVER_next_thread_id#1$wclk$8| #b000111)
(= |__CPROVER_pipe_count#1$wclk$8| #b001000)
(= |main::1::t1!0@1#1$wclk$8| #b001101)
(= |main::1::t2!0@1#1$wclk$8| #b001110)
(= |main::1::t3!0@1#1$wclk$8| #b001111)
(= |__CPROVER_next_thread_id#2$wclk$8| #b010000)
(= |main::1::t1!0@1#2$wclk$8| #b010010)
(= |__CPROVER_next_thread_id#3$rclk$8| #b011000)
(= |__CPROVER_next_thread_id#5$wclk$8| #b011000)
(= |main::1::t2!0@1#2$wclk$8| #b011001)
(= |__CPROVER_next_thread_id#6$rclk$8| #b101011)
(= |__CPROVER_next_thread_id#8$wclk$8| #b101011)
(= |main::1::t3!0@1#2$wclk$8| #b101100)
(= |main::1::t1!0@1#3$rclk$8| #b101110)
(= |main::1::t1!0@1#4$rclk$8| #b101111)
(= |__CPROVER_next_thread_id#9$rclk$8| #b110000)
(= |main::1::t2!0@1#3$rclk$8| #b110010)
(= |main::1::t2!0@1#4$rclk$8| #b110011)
(= |__CPROVER_next_thread_id#10$rclk$8| #b110110)
(= |main::1::t3!0@1#3$rclk$8| #b111001)
(= |main::1::t3!0@1#4$rclk$8| #b111010)
(= |__CPROVER_next_thread_id#11$rclk$8| #b111011)
(= |__CPROVER_threads_exited#2| @fun_9)
(= |__CPROVER_threads_exited#3| @fun_12)
(= |__CPROVER_threads_exited#4| @fun_13)
(= array_of.0 @fun_7)
(= |__CPROVER_threads_exited#5| @fun_7)
(= |__CPROVER_threads_exited#7| @fun_7)
(= |__CPROVER_threads_exited#9| @fun_11)
(function @fun_9
 (type (Array (_ BitVec 32) (_ BitVec 1)))
 (default #b1))
(function @fun_12
 (type (Array (_ BitVec 32) (_ BitVec 1)))
 (default #b0))
(function @fun_13
 (type (Array (_ BitVec 32) (_ BitVec 1)))
 (= (@fun_13 #b00000000000000000000000000000000) #b0)
 (default #b1))
(function @fun_7
 (type (Array (_ BitVec 32) (_ BitVec 1)))
 (= (@fun_7 #b10000000000000000000000000000000) #b0)
 (default #b1))
(function @fun_11
 (type (Array (_ BitVec 32) (_ BitVec 1)))
 (= (@fun_11 #b10000000000000000000000000000000) #b0)
 (= (@fun_11 #b00000000000000000000000000000000) #b0)
 (default #b1))

real	0m0.017s
user	0m0.012s
sys	0m0.004s
State: AC Run_time: 0.018984317779541016